SAT
-69 97 87 59 80 -90 100 34 -8 -68 79 61 18 -37 -22 75 54 -3 -27 24 26 -55 -95 -44 57 67 52 17 -76 15 -71 -98 -20 -89 91 -11 -32 -42 23 88 43 -46 -92 -64 -50 -6 -66 -7 1 74 -49 -48 -29 -56 53 83 -10 -47 82 -28 -21 40 60 14 -16 -5 65 45 -85 -30 -70 -13 -86 -2 -72 -81 -94 -99 93 -38 31 12 -63 78 77 -73 41 -96 -33 62 -9 -4 84 36 -25 39 -35 -58 -51 -19 0
